94 94
52 42
60 3
21 16
77 7
37 39
5 15
56 33
68 44
35 34
65 22
38 37
69 12
72 36
66 45
53 3
81 41
61 21
28 32
79 20
12 6
59 14
2 39
4 26
25 43
58 15
88 24
33 17
19 2
48 24
57 30
32 35
43 31
46 19
27 38
34 18
92 35
31 4
41 19
49 40
64 45
45 42
44 40
18 27
29 30
47 5
6 2
15 28
10 20
85 22
89 47
74 26
94 29
75 33
14 21
7 47
78 27
80 13
67 8
26 38
76 1
70 11
40 36
8 4
16 14
91 43
84 8
51 28
42 37
23 44
30 12
73 9
22 10
90 16
71 31
3 32
1 9
55 25
83 5
11 6
63 23
20 34
13 18
62 10
24 11
17 25
39 23
9 46
87 1
36 29
93 17
50 7
54 46
86 13
82 41
